NAME : Golden_19
COMMENT : 1366.86
TYPE : CVRP
DIMENSION : 361
EDGE_WEIGHT_TYPE : EUC_2D
CAPACITY : 200
NODE_COORD_SECTION
1 0.00000 0.00000
2 5.77350 0.00000
3 2.88670 5.00000
4 -2.88680 5.00000
5 -5.77350 0.00000
6 -2.88670 -5.00000
7 2.88680 -5.00000
8 8.66030 5.00000
9 0.00000 10.00000
10 -8.66030 5.00000
11 -8.66030 -5.00000
12 0.00000 -10.00000
13 8.66030 -5.00000
14 5.34050 0.75000
15 3.31980 4.25000
16 6.49520 -1.25000
17 7.21690 -2.50000
18 7.93860 -3.75000
19 6.49520 1.25000
20 7.21690 2.50000
21 7.93860 3.75000
22 2.02070 5.00000
23 -2.02070 5.00000
24 4.33010 5.00000
25 5.77350 5.00000
26 7.21690 5.00000
27 2.16510 6.25000
28 1.44340 7.50000
29 0.72170 8.75000
30 -3.31980 4.25000
31 -5.34050 0.75000
32 -2.16510 6.25000
33 -1.44340 7.50000
34 -0.72170 8.75000
35 -4.33010 5.00000
36 -5.77350 5.00000
37 -7.21690 5.00000
38 -5.34050 -0.75000
39 -3.31980 -4.25000
40 -6.49520 1.25000
41 -7.21690 2.50000
42 -7.93860 3.75000
43 -6.49520 -1.25000
44 -7.21690 -2.50000
45 -7.93860 -3.75000
46 -2.02070 -5.00000
47 2.02070 -5.00000
48 -4.33010 -5.00000
49 -5.77350 -5.00000
50 -7.21690 -5.00000
51 -2.16510 -6.25000
52 -1.44340 -7.50000
53 -0.72170 -8.75000
54 3.31980 -4.25000
55 5.34050 -0.75000
56 2.16510 -6.25000
57 1.44340 -7.50000
58 0.72170 -8.75000
59 4.33010 -5.00000
60 5.77350 -5.00000
61 7.21690 -5.00000
62 7.21690 0.00000
63 3.60840 6.25000
64 -3.60840 6.25000
65 -7.21690 0.00000
66 -3.60840 -6.25000
67 3.60840 -6.25000
68 10.82530 6.25000
69 0.00000 12.50000
70 -10.82530 6.25000
71 -10.82530 -6.25000
72 0.00000 -12.50000
73 10.82530 -6.25000
74 6.67560 0.93750
75 4.14970 5.31250
76 8.11900 -1.56250
77 9.02110 -3.12500
78 9.92320 -4.68750
79 8.11900 1.56250
80 9.02110 3.12500
81 9.92320 4.68750
82 2.52590 6.25000
83 -2.52590 6.25000
84 5.41270 6.25000
85 7.21690 6.25000
86 9.02110 6.25000
87 2.70630 7.81250
88 1.80420 9.37500
89 0.90210 10.93750
90 -4.14970 5.31250
91 -6.67560 0.93750
92 -2.70630 7.81250
93 -1.80420 9.37500
94 -0.90210 10.93750
95 -5.41270 6.25000
96 -7.21690 6.25000
97 -9.02110 6.25000
98 -6.67560 -0.93750
99 -4.14970 -5.31250
100 -8.11900 1.56250
101 -9.02110 3.12500
102 -9.92320 4.68750
103 -8.11900 -1.56250
104 -9.02110 -3.12500
105 -9.92320 -4.68750
106 -2.52590 -6.25000
107 2.52590 -6.25000
108 -5.41270 -6.25000
109 -7.21690 -6.25000
110 -9.02110 -6.25000
111 -2.70630 -7.81250
112 -1.80420 -9.37500
113 -0.90210 -10.93750
114 4.14970 -5.31250
115 6.67560 -0.93750
116 2.70630 -7.81250
117 1.80420 -9.37500
118 0.90210 -10.93750
119 5.41270 -6.25000
120 7.21690 -6.25000
121 9.02110 -6.25000
122 9.02110 0.00000
123 4.51050 7.81250
124 -4.51050 7.81250
125 -9.02110 0.00000
126 -4.51050 -7.81250
127 4.51060 -7.81250
128 13.53160 7.81250
129 0.00000 15.62500
130 -13.53160 7.81250
131 -13.53160 -7.81250
132 0.00000 -15.62500
133 13.53160 -7.81250
134 8.34450 1.17190
135 5.18710 6.64060
136 10.14870 -1.95310
137 11.27640 -3.90620
138 12.40400 -5.85940
139 10.14870 1.95310
140 11.27640 3.90620
141 12.40400 5.85940
142 3.15740 7.81250
143 -3.15740 7.81250
144 6.76580 7.81250
145 9.02110 7.81250
146 11.27640 7.81250
147 3.38290 9.76560
148 2.25530 11.71870
149 1.12760 13.67190
150 -5.18710 6.64060
151 -8.34450 1.17190
152 -3.38290 9.76560
153 -2.25530 11.71870
154 -1.12760 13.67190
155 -6.76580 7.81250
156 -9.02110 7.81250
157 -11.27640 7.81250
158 -8.34450 -1.17190
159 -5.18710 -6.64060
160 -10.14870 1.95310
161 -11.27640 3.90620
162 -12.40400 5.85940
163 -10.14870 -1.95310
164 -11.27640 -3.90630
165 -12.40400 -5.85940
166 -3.15740 -7.81250
167 3.15740 -7.81250
168 -6.76580 -7.81250
169 -9.02110 -7.81250
170 -11.27640 -7.81250
171 -3.38290 -9.76560
172 -2.25530 -11.71870
173 -1.12760 -13.67190
174 5.18710 -6.64060
175 8.34450 -1.17190
176 3.38290 -9.76560
177 2.25530 -11.71870
178 1.12760 -13.67190
179 6.76580 -7.81250
180 9.02110 -7.81250
181 11.27640 -7.81250
182 11.27640 0.00000
183 5.63820 9.76560
184 -5.63820 9.76560
185 -11.27640 0.00000
186 -5.63820 -9.76560
187 5.63820 -9.76560
188 16.91460 9.76560
189 0.00000 19.53120
190 -16.91460 9.76560
191 -16.91460 -9.76560
192 0.00000 -19.53120
193 16.91460 -9.76560
194 10.43060 1.46480
195 6.48390 8.30080
196 12.68590 -2.44140
197 14.09550 -4.88280
198 15.50500 -7.32420
199 12.68590 2.44140
200 14.09550 4.88280
201 15.50500 7.32420
202 3.94670 9.76560
203 -3.94670 9.76560
204 8.45730 9.76560
205 11.27640 9.76560
206 14.09550 9.76560
207 4.22860 12.20700
208 2.81910 14.64840
209 1.40950 17.08980
210 -6.48390 8.30080
211 -10.43060 1.46480
212 -4.22860 12.20700
213 -2.81910 14.64840
214 -1.40950 17.08980
215 -8.45730 9.76560
216 -11.27640 9.76560
217 -14.09550 9.76560
218 -10.43060 -1.46480
219 -6.48390 -8.30080
220 -12.68590 2.44140
221 -14.09550 4.88280
222 -15.50500 7.32420
223 -12.68590 -2.44140
224 -14.09550 -4.88280
225 -15.50500 -7.32420
226 -3.94670 -9.76560
227 3.94670 -9.76560
228 -8.45730 -9.76560
229 -11.27640 -9.76560
230 -14.09550 -9.76560
231 -4.22860 -12.20700
232 -2.81910 -14.64840
233 -1.40950 -17.08980
234 6.48390 -8.30080
235 10.43060 -1.46480
236 4.22860 -12.20700
237 2.81910 -14.64840
238 1.40950 -17.08980
239 8.45730 -9.76560
240 11.27640 -9.76560
241 14.09550 -9.76560
242 14.09550 0.00000
243 7.04770 12.20700
244 -7.04770 12.20700
245 -14.09550 0.00000
246 -7.04770 -12.20700
247 7.04770 -12.20700
248 21.14320 12.20700
249 0.00000 24.41410
250 -21.14320 12.20700
251 -21.14320 -12.20700
252 0.00000 -24.41410
253 21.14320 -12.20700
254 13.03830 1.83110
255 8.10490 10.37600
256 15.85740 -3.05180
257 17.61930 -6.10350
258 19.38130 -9.15530
259 15.85740 3.05180
260 17.61930 6.10350
261 19.38130 9.15530
262 4.93340 12.20700
263 -4.93340 12.20700
264 10.57160 12.20700
265 14.09550 12.20700
266 17.61930 12.20700
267 5.28580 15.25880
268 3.52390 18.31050
269 1.76190 21.36230
270 -8.10490 10.37600
271 -13.03830 1.83110
272 -5.28580 15.25880
273 -3.52390 18.31050
274 -1.76190 21.36230
275 -10.57160 12.20700
276 -14.09550 12.20700
277 -17.61930 12.20700
278 -13.03830 -1.83110
279 -8.10490 -10.37600
280 -15.85740 3.05180
281 -17.61930 6.10350
282 -19.38130 9.15530
283 -15.85740 -3.05180
284 -17.61930 -6.10350
285 -19.38130 -9.15530
286 -4.93340 -12.20700
287 4.93340 -12.20700
288 -10.57160 -12.20700
289 -14.09550 -12.20700
290 -17.61930 -12.20700
291 -5.28580 -15.25880
292 -3.52390 -18.31050
293 -1.76190 -21.36230
294 8.10490 -10.37600
295 13.03830 -1.83110
296 5.28580 -15.25880
297 3.52390 -18.31050
298 1.76190 -21.36230
299 10.57160 -12.20700
300 14.09550 -12.20700
301 17.61930 -12.20700
302 17.61930 0.00000
303 8.80970 15.25880
304 -8.80970 15.25880
305 -17.61930 0.00000
306 -8.80970 -15.25880
307 8.80970 -15.25880
308 26.42900 15.25880
309 0.00000 30.51760
310 -26.42900 15.25880
311 -26.42900 -15.25880
312 0.00000 -30.51760
313 26.42900 -15.25880
314 16.29790 2.28880
315 10.13110 12.97000
316 19.82170 -3.81470
317 22.02420 -7.62940
318 24.22660 -11.44410
319 19.82170 3.81470
320 22.02420 7.62940
321 24.22660 11.44410
322 6.16680 15.25880
323 -6.16680 15.25880
324 13.21450 15.25880
325 17.61930 15.25880
326 22.02420 15.25880
327 6.60720 19.07350
328 4.40480 22.88820
329 2.20240 26.70290
330 -10.13110 12.97000
331 -16.29790 2.28880
332 -6.60720 19.07350
333 -4.40480 22.88820
334 -2.20240 26.70290
335 -13.21450 15.25880
336 -17.61930 15.25880
337 -22.02420 15.25880
338 -16.29790 -2.28880
339 -10.13110 -12.97000
340 -19.82170 3.81470
341 -22.02420 7.62940
342 -24.22660 11.44410
343 -19.82170 -3.81470
344 -22.02420 -7.62940
345 -24.22660 -11.44410
346 -6.16680 -15.25880
347 6.16680 -15.25880
348 -13.21450 -15.25880
349 -17.61930 -15.25880
350 -22.02420 -15.25880
351 -6.60720 -19.07350
352 -4.40480 -22.88820
353 -2.20240 -26.70290
354 10.13110 -12.97000
355 16.29790 -2.28880
356 6.60730 -19.07350
357 4.40480 -22.88820
358 2.20240 -26.70290
359 13.21450 -15.25880
360 17.61930 -15.25880
361 22.02420 -15.25880
DEMAND_SECTION
1 0
2 40
3 40
4 40
5 40
6 40
7 40
8 40
9 40
10 40
11 40
12 40
13 40
14 10
15 10
16 10
17 20
18 10
19 10
20 20
21 10
22 10
23 10
24 10
25 20
26 10
27 10
28 20
29 10
30 10
31 10
32 10
33 20
34 10
35 10
36 20
37 10
38 10
39 10
40 10
41 20
42 10
43 10
44 20
45 10
46 10
47 10
48 10
49 20
50 10
51 10
52 20
53 10
54 10
55 10
56 10
57 20
58 10
59 10
60 20
61 10
62 40
63 40
64 40
65 40
66 40
67 40
68 40
69 40
70 40
71 40
72 40
73 40
74 10
75 10
76 10
77 20
78 10
79 10
80 20
81 10
82 10
83 10
84 10
85 20
86 10
87 10
88 20
89 10
90 10
91 10
92 10
93 20
94 10
95 10
96 20
97 10
98 10
99 10
100 10
101 20
102 10
103 10
104 20
105 10
106 10
107 10
108 10
109 20
110 10
111 10
112 20
113 10
114 10
115 10
116 10
117 20
118 10
119 10
120 20
121 10
122 40
123 40
124 40
125 40
126 40
127 40
128 40
129 40
130 40
131 40
132 40
133 40
134 10
135 10
136 10
137 20
138 10
139 10
140 20
141 10
142 10
143 10
144 10
145 20
146 10
147 10
148 20
149 10
150 10
151 10
152 10
153 20
154 10
155 10
156 20
157 10
158 10
159 10
160 10
161 20
162 10
163 10
164 20
165 10
166 10
167 10
168 10
169 20
170 10
171 10
172 20
173 10
174 10
175 10
176 10
177 20
178 10
179 10
180 20
181 10
182 40
183 40
184 40
185 40
186 40
187 40
188 40
189 40
190 40
191 40
192 40
193 40
194 10
195 10
196 10
197 20
198 10
199 10
200 20
201 10
202 10
203 10
204 10
205 20
206 10
207 10
208 20
209 10
210 10
211 10
212 10
213 20
214 10
215 10
216 20
217 10
218 10
219 10
220 10
221 20
222 10
223 10
224 20
225 10
226 10
227 10
228 10
229 20
230 10
231 10
232 20
233 10
234 10
235 10
236 10
237 20
238 10
239 10
240 20
241 10
242 40
243 40
244 40
245 40
246 40
247 40
248 40
249 40
250 40
251 40
252 40
253 40
254 10
255 10
256 10
257 20
258 10
259 10
260 20
261 10
262 10
263 10
264 10
265 20
266 10
267 10
268 20
269 10
270 10
271 10
272 10
273 20
274 10
275 10
276 20
277 10
278 10
279 10
280 10
281 20
282 10
283 10
284 20
285 10
286 10
287 10
288 10
289 20
290 10
291 10
292 20
293 10
294 10
295 10
296 10
297 20
298 10
299 10
300 20
301 10
302 40
303 40
304 40
305 40
306 40
307 40
308 40
309 40
310 40
311 40
312 40
313 40
314 10
315 10
316 10
317 20
318 10
319 10
320 20
321 10
322 10
323 10
324 10
325 20
326 10
327 10
328 20
329 10
330 10
331 10
332 10
333 20
334 10
335 10
336 20
337 10
338 10
339 10
340 10
341 20
342 10
343 10
344 20
345 10
346 10
347 10
348 10
349 20
350 10
351 10
352 20
353 10
354 10
355 10
356 10
357 20
358 10
359 10
360 20
361 10
DEPOT_SECTION
1
-1
EOF
